50
    1    47    37
    2    31    21
    3    13     3
    4    36    26
    5    35    25
    6    37    27
    7    32    22
    8    15     5
    9    25    15
   10    51    41
   11    29    19
   12    42    32
   13    14     4
   14    31    21
   15    17     7
   16    43    33
   17    36    26
   18    20    10
   19    27    17
   20    42    32
   21    17     7
   22    58    48
   23    28    18
   24    46    36
   25    13     3
   26    40    30
   27    27    17
   28    19     9
   29    54    44
   30    28    18
   31    24    14
   32    59    49
   33    18     8
   34    39    29
   35    53    43
   36    57    47
   37    48    38
   38    56    46
   39    25    15
   40    11     1
   41    30    20
   42    53    43
   43    55    45
   44    42    32
   45    15     5
   46    49    39
   47    42    32
   48    33    23
   49    48    38
   50    50    40
840
